43 63 
97 12 
94 89 
35 95 
56 2 
73 4 
38 31 
97 28 
11 53 
22 81 
32 69 
91 92 
81 63 
60 65 
57 67 
77 0 
31 74 
13 25 
15 48 
72 24 
50 97 
80 40 
80 29 
21 44 
82 43 
25 67 
64 68 
11 46 
32 72 
63 89 
91 40 
42 22 
66 55 
99 33 
3 23 
9 6 
73 90 
98 53 
19 19 
49 54 
15 75 
73 79 
95 84 
77 27 
8 92 
69 0 
84 11 
74 2 
18 26 
36 21 
